TCS_Benchmarks/redos_fix/corpus1_output_distinct_845_844_16_0.txt
(([\-0-9A-Za-z]+\.)+)(\S+)
(([\-0-9A-Za-z]+\.)+)(([A-Za-z]{2,4}|[0-9]{1,3})(\]?)\?subject=)(\S+)